1 3 100 37920.17
1 3 200 38228.71
1 3 300 38344.34
2 3 100 35911.02
2 3 200 35067.87
2 3 300 35126.23
3 3 100 34577.63
3 3 200 34994.98
3 3 300 34971.39
4 3 100 34098.25
4 3 200 33572.37
4 3 300 34204.17
5 3 100 32834.51
5 3 200 33282.00
5 3 300 32616.38
